p cnf 47 135
a 33 37 0
e 1 2 3 4 5 6 7 8 9 10 11 12 13 14 15 16 17 18 19 20 21 22 23 24 25 26 27 28 29 30 31 32 34 35 36 38 39 40 41 42 43 44 45 46 47 0
-1 -2 -3 0
1 2 -3 0
-1 2 3 0
1 -2 3 0
-5 3 0
-5 4 0
-3 -4 5 0
5 6 0
-5 6 0
8 7 0
8 -1 0
-7 1 -8 0
-8 -9 -10 0
8 9 -10 0
-8 9 10 0
8 -9 10 0
-12 -8 0
-12 -7 0
8 7 12 0
13 -11 0
13 -12 0
11 12 -13 0
-14 4 0
-14 -13 0
-4 13 14 0
-10 14 -15 0
10 -14 -15 0
-10 -14 15 0
10 14 15 0
-16 12 0
-16 11 0
-12 -11 16 0
-17 -16 0
-17 -5 0
16 5 17 0
17 9 -18 0
-17 -9 -18 0
17 -9 18 0
-17 9 18 0
19 15 0
19 -18 0
-15 18 -19 0
-20 6 0
-20 -19 0
-6 19 20 0
21 -12 0
21 16 0
12 -16 -21 0
22 20 0
22 21 0
-20 -21 -22 0
-23 3 -24 0
23 -3 -24 0
-23 -3 24 0
23 3 24 0
26 25 0
26 -7 0
-25 7 -26 0
-3 5 -27 0
3 -5 -27 0
-3 -5 27 0
3 5 27 0
-28 -11 0
-28 27 0
11 -27 28 0
28 -7 -29 0
-28 7 -29 0
28 7 29 0
-28 -7 29 0
-30 -26 0
-30 29 0
26 -29 30 0
-31 -24 0
-31 30 0
24 -30 31 0
-32 -4 0
-32 23 0
4 -23 32 0
-33 27 0
-33 32 0
-27 -32 33 0
-34 -31 0
-34 33 0
31 -33 34 0
-5 12 -35 0
5 -12 -35 0
-5 -12 35 0
5 12 35 0
-35 2 -36 0
35 -2 -36 0
-35 -2 36 0
35 2 36 0
38 -37 0
38 -5 0
37 5 -38 0
-39 -36 0
-39 -38 0
36 38 39 0
41 40 0
41 16 0
-40 -16 -41 0
42 39 0
42 -41 0
-39 41 -42 0
43 -32 0
43 -37 0
32 37 -43 0
10 43 -44 0
-10 -43 -44 0
10 -43 44 0
-10 43 44 0
42 -44 -45 0
-42 44 -45 0
42 44 45 0
-42 -44 45 0
-34 -45 -46 0
34 45 -46 0
-34 45 46 0
34 -45 46 0
47 -22 0
47 46 0
22 -46 -47 0
47 18 40 33 -34 -25 -8 21 0
-39 35 31 0
-18 -7 21 25 38 10 47 0
33 38 23 0
-40 30 2 -16 -19 45 0
12 10 38 -9 -30 19 39 0
-38 -25 -42 -13 -35 16 0
32 -7 5 0
-21 18 40 31 0
35 45 -46 -47 -38 3 36 0
-15 -31 22 -25 0
38 -28 -17 30 0
47 0
